
Gurobi 9.5.1 (linux64) logging started Fri Mar 18 12:10:48 2022

Set parameter LogFile to value "../results/logs/log_2022_03_18_12_09.csv_21_250.log"
Set parameter LazyConstraints to value 1
Gurobi Optimizer version 9.5.1 build v9.5.1rc2 (linux64)
Thread count: 8 physical cores, 8 logical processors, using up to 8 threads
Optimize a model with 80949 rows, 299400 columns and 311596 nonzeros
Model fingerprint: 0xb31d1b77
Variable types: 0 continuous, 299400 integer (299400 binary)
Coefficient statistics:
  Matrix range     [1e+00, 1e+00]
  Objective range  [1e+00, 1e+00]
  Bounds range     [1e+00, 1e+00]
  RHS range        [1e+00, 2e+02]
Found heuristic solution: objective 149700.00000

Explored 0 nodes (0 simplex iterations) in 0.04 seconds (0.02 work units)
Thread count was 1 (of 8 available processors)

Solution count 1: 149700 

Optimal solution found (tolerance 1.00e-04)
Best objective 1.497000000000e+05, best bound 1.497000000000e+05, gap 0.0000%

User-callback calls 21, time in user-callback 0.00 sec

Gurobi 9.5.1 (linux64) logging started Fri Mar 18 12:11:52 2022

Set parameter LogFile to value "../results/logs/log_2022_03_18_12_09.csv_21_250.log"
Set parameter LazyConstraints to value 1
Gurobi Optimizer version 9.5.1 build v9.5.1rc2 (linux64)
Thread count: 8 physical cores, 8 logical processors, using up to 8 threads
Optimize a model with 80949 rows, 299400 columns and 311596 nonzeros
Model fingerprint: 0xb31d1b77
Variable types: 0 continuous, 299400 integer (299400 binary)
Coefficient statistics:
  Matrix range     [1e+00, 1e+00]
  Objective range  [1e+00, 1e+00]
  Bounds range     [1e+00, 1e+00]
  RHS range        [1e+00, 2e+02]
Found heuristic solution: objective 149700.00000

Explored 0 nodes (0 simplex iterations) in 0.04 seconds (0.02 work units)
Thread count was 1 (of 8 available processors)

Solution count 1: 149700 

Optimal solution found (tolerance 1.00e-04)
Best objective 1.497000000000e+05, best bound 1.497000000000e+05, gap 0.0000%

User-callback calls 21, time in user-callback 0.00 sec

Gurobi 9.5.1 (linux64) logging started Fri Mar 18 12:12:56 2022

Set parameter LogFile to value "../results/logs/log_2022_03_18_12_09.csv_21_250.log"
Set parameter LazyConstraints to value 1
Gurobi Optimizer version 9.5.1 build v9.5.1rc2 (linux64)
Thread count: 8 physical cores, 8 logical processors, using up to 8 threads
Optimize a model with 80949 rows, 299400 columns and 311596 nonzeros
Model fingerprint: 0xb31d1b77
Variable types: 0 continuous, 299400 integer (299400 binary)
Coefficient statistics:
  Matrix range     [1e+00, 1e+00]
  Objective range  [1e+00, 1e+00]
  Bounds range     [1e+00, 1e+00]
  RHS range        [1e+00, 2e+02]
Found heuristic solution: objective 149700.00000

Explored 0 nodes (0 simplex iterations) in 0.05 seconds (0.02 work units)
Thread count was 1 (of 8 available processors)

Solution count 1: 149700 

Optimal solution found (tolerance 1.00e-04)
Best objective 1.497000000000e+05, best bound 1.497000000000e+05, gap 0.0000%

User-callback calls 21, time in user-callback 0.00 sec

Gurobi 9.5.1 (linux64) logging started Fri Mar 18 12:19:13 2022

Set parameter LogFile to value "../results/logs/log_2022_03_18_12_09.csv_21_250.log"
Set parameter LazyConstraints to value 1
Gurobi Optimizer version 9.5.1 build v9.5.1rc2 (linux64)
Thread count: 8 physical cores, 8 logical processors, using up to 8 threads
Optimize a model with 80949 rows, 299400 columns and 311596 nonzeros
Model fingerprint: 0xb31d1b77
Variable types: 0 continuous, 299400 integer (299400 binary)
Coefficient statistics:
  Matrix range     [1e+00, 1e+00]
  Objective range  [1e+00, 1e+00]
  Bounds range     [1e+00, 1e+00]
  RHS range        [1e+00, 2e+02]
Found heuristic solution: objective 149700.00000

Explored 0 nodes (0 simplex iterations) in 0.04 seconds (0.02 work units)
Thread count was 1 (of 8 available processors)

Solution count 1: 149700 

Optimal solution found (tolerance 1.00e-04)
Best objective 1.497000000000e+05, best bound 1.497000000000e+05, gap 0.0000%

User-callback calls 21, time in user-callback 0.00 sec

Gurobi 9.5.1 (linux64) logging started Fri Mar 18 12:25:18 2022

Set parameter LogFile to value "../results/logs/log_2022_03_18_12_09.csv_21_250.log"
Set parameter LazyConstraints to value 1
Gurobi Optimizer version 9.5.1 build v9.5.1rc2 (linux64)
Thread count: 8 physical cores, 8 logical processors, using up to 8 threads
Optimize a model with 80949 rows, 299400 columns and 311596 nonzeros
Model fingerprint: 0x70dab57e
Variable types: 149700 continuous, 149700 integer (149700 binary)
Coefficient statistics:
  Matrix range     [1e+00, 1e+00]
  Objective range  [1e+00, 1e+00]
  Bounds range     [1e+00, 1e+00]
  RHS range        [1e+00, 2e+02]
Found heuristic solution: objective 149700.00000

Explored 0 nodes (0 simplex iterations) in 0.05 seconds (0.03 work units)
Thread count was 1 (of 8 available processors)

Solution count 1: 149700 

Optimal solution found (tolerance 1.00e-04)
Best objective 1.497000000000e+05, best bound 1.497000000000e+05, gap 0.0000%

User-callback calls 21, time in user-callback 0.00 sec

Gurobi 9.5.1 (linux64) logging started Fri Mar 18 12:26:25 2022

Set parameter LogFile to value "../results/logs/log_2022_03_18_12_09.csv_21_250.log"
Set parameter LazyConstraints to value 1
Gurobi Optimizer version 9.5.1 build v9.5.1rc2 (linux64)
Thread count: 8 physical cores, 8 logical processors, using up to 8 threads
Optimize a model with 166587 rows, 299400 columns and 568510 nonzeros
Model fingerprint: 0x15a926f6
Variable types: 0 continuous, 299400 integer (299400 binary)
Coefficient statistics:
  Matrix range     [1e+00, 1e+00]
  Objective range  [1e+00, 1e+00]
  Bounds range     [1e+00, 1e+00]
  RHS range        [1e+00, 2e+02]
Found heuristic solution: objective 148579.00000
Found heuristic solution: objective 148892.00000
Found heuristic solution: objective 149598.00000
Presolve time: 0.69s
Presolved: 166587 rows, 299400 columns, 568510 nonzeros
Extracted 85638 lazy constraints
Variable types: 0 continuous, 299400 integer (299400 binary)
Found heuristic solution: objective 149700.00000

Explored 0 nodes (0 simplex iterations) in 0.87 seconds (0.97 work units)
Thread count was 8 (of 8 available processors)

Solution count 4: 149700 149598 148892 148579 

Optimal solution found (tolerance 1.00e-04)
Best objective 1.497000000000e+05, best bound 1.497000000000e+05, gap 0.0000%

User-callback calls 174, time in user-callback 0.00 sec

Gurobi 9.5.1 (linux64) logging started Fri Mar 18 12:28:36 2022

Set parameter LogFile to value "../results/logs/log_2022_03_18_12_09.csv_21_250.log"
Set parameter LazyConstraints to value 1
Gurobi Optimizer version 9.5.1 build v9.5.1rc2 (linux64)
Thread count: 8 physical cores, 8 logical processors, using up to 8 threads
Optimize a model with 80949 rows, 299400 columns and 311596 nonzeros
Model fingerprint: 0x948d90e8
Variable types: 0 continuous, 299400 integer (299400 binary)
Coefficient statistics:
  Matrix range     [1e+00, 1e+00]
  Objective range  [1e+00, 1e+00]
  Bounds range     [1e+00, 1e+00]
  RHS range        [1e+00, 2e+02]
Found heuristic solution: objective 149700.00000

Explored 0 nodes (0 simplex iterations) in 0.04 seconds (0.02 work units)
Thread count was 1 (of 8 available processors)

Solution count 1: 149700 

Optimal solution found (tolerance 1.00e-04)
Best objective 1.497000000000e+05, best bound 1.497000000000e+05, gap 0.0000%

User-callback calls 21, time in user-callback 0.00 sec

Gurobi 9.5.1 (linux64) logging started Fri Mar 18 12:29:41 2022

Set parameter LogFile to value "../results/logs/log_2022_03_18_12_09.csv_21_250.log"
Set parameter LazyConstraints to value 1
Gurobi Optimizer version 9.5.1 build v9.5.1rc2 (linux64)
Thread count: 8 physical cores, 8 logical processors, using up to 8 threads
Optimize a model with 80949 rows, 299400 columns and 311596 nonzeros
Model fingerprint: 0xb31d1b77
Variable types: 0 continuous, 299400 integer (299400 binary)
Coefficient statistics:
  Matrix range     [1e+00, 1e+00]
  Objective range  [1e+00, 1e+00]
  Bounds range     [1e+00, 1e+00]
  RHS range        [1e+00, 2e+02]
Found heuristic solution: objective 149700.00000

Explored 0 nodes (0 simplex iterations) in 0.04 seconds (0.02 work units)
Thread count was 1 (of 8 available processors)

Solution count 1: 149700 

Optimal solution found (tolerance 1.00e-04)
Best objective 1.497000000000e+05, best bound 1.497000000000e+05, gap 0.0000%

User-callback calls 21, time in user-callback 0.00 sec

Gurobi 9.5.1 (linux64) logging started Fri Mar 18 12:37:05 2022

Set parameter LogFile to value "../results/logs/log_2022_03_18_12_09.csv_21_250.log"
Set parameter LazyConstraints to value 1
Gurobi Optimizer version 9.5.1 build v9.5.1rc2 (linux64)
Thread count: 8 physical cores, 8 logical processors, using up to 8 threads
Optimize a model with 166587 rows, 299400 columns and 568510 nonzeros
Model fingerprint: 0xb094e3be
Variable types: 149700 continuous, 149700 integer (149700 binary)
Coefficient statistics:
  Matrix range     [1e+00, 1e+00]
  Objective range  [1e+00, 1e+00]
  Bounds range     [1e+00, 1e+00]
  RHS range        [1e+00, 2e+02]
Found heuristic solution: objective 148579.00000
Found heuristic solution: objective 149700.00000

Explored 0 nodes (0 simplex iterations) in 0.07 seconds (0.04 work units)
Thread count was 1 (of 8 available processors)

Solution count 2: 149700 148579 

Optimal solution found (tolerance 1.00e-04)
Best objective 1.497000000000e+05, best bound 1.497000000000e+05, gap 0.0000%

User-callback calls 23, time in user-callback 0.00 sec

Gurobi 9.5.1 (linux64) logging started Fri Mar 18 12:46:58 2022

Set parameter LogFile to value "../results/logs/log_2022_03_18_12_09.csv_21_250.log"
Set parameter LazyConstraints to value 1
Gurobi Optimizer version 9.5.1 build v9.5.1rc2 (linux64)
Thread count: 8 physical cores, 8 logical processors, using up to 8 threads
Optimize a model with 82952 rows, 299400 columns and 404381 nonzeros
Model fingerprint: 0x989225fe
Variable types: 0 continuous, 299400 integer (299400 binary)
Coefficient statistics:
  Matrix range     [1e+00, 2e+01]
  Objective range  [1e+00, 1e+00]
  Bounds range     [1e+00, 1e+00]
  RHS range        [1e+00, 2e+02]
Found heuristic solution: objective 148287.00000
Found heuristic solution: objective 149497.00000
Found heuristic solution: objective 149563.00000
Presolve removed 78940 rows and 157885 columns
Presolve time: 0.15s
Presolved: 4012 rows, 141515 columns, 91919 nonzeros
Variable types: 0 continuous, 141515 integer (141510 binary)
Found heuristic solution: objective 149691.00000

Explored 0 nodes (0 simplex iterations) in 0.32 seconds (0.24 work units)
Thread count was 8 (of 8 available processors)

Solution count 4: 149691 149563 149497 148287 

Optimal solution found (tolerance 1.00e-04)
Best objective 1.496910000000e+05, best bound 1.497000000000e+05, gap 0.0060%

User-callback calls 121, time in user-callback 0.00 sec

Gurobi 9.5.1 (linux64) logging started Fri Mar 18 12:52:28 2022

Set parameter LogFile to value "../results/logs/log_2022_03_18_12_09.csv_21_250.log"
Set parameter LazyConstraints to value 1
Gurobi Optimizer version 9.5.1 build v9.5.1rc2 (linux64)
Thread count: 8 physical cores, 8 logical processors, using up to 8 threads
Optimize a model with 82952 rows, 299400 columns and 404381 nonzeros
Model fingerprint: 0x989225fe
Variable types: 0 continuous, 299400 integer (299400 binary)
Coefficient statistics:
  Matrix range     [1e+00, 2e+01]
  Objective range  [1e+00, 1e+00]
  Bounds range     [1e+00, 1e+00]
  RHS range        [1e+00, 2e+02]
Found heuristic solution: objective 148287.00000
Found heuristic solution: objective 149497.00000
Found heuristic solution: objective 149563.00000
Presolve removed 78940 rows and 157885 columns
Presolve time: 0.15s
Presolved: 4012 rows, 141515 columns, 91919 nonzeros
Variable types: 0 continuous, 141515 integer (141510 binary)
Found heuristic solution: objective 149691.00000

Explored 0 nodes (0 simplex iterations) in 0.33 seconds (0.24 work units)
Thread count was 8 (of 8 available processors)

Solution count 4: 149691 149563 149497 148287 

Optimal solution found (tolerance 1.00e-04)
Best objective 1.496910000000e+05, best bound 1.497000000000e+05, gap 0.0060%

User-callback calls 121, time in user-callback 0.00 sec

Gurobi 9.5.1 (linux64) logging started Fri Mar 18 12:57:59 2022

Set parameter LogFile to value "../results/logs/log_2022_03_18_12_09.csv_21_250.log"
Set parameter LazyConstraints to value 1
Gurobi Optimizer version 9.5.1 build v9.5.1rc2 (linux64)
Thread count: 8 physical cores, 8 logical processors, using up to 8 threads
Optimize a model with 82952 rows, 299400 columns and 404381 nonzeros
Model fingerprint: 0x989225fe
Variable types: 0 continuous, 299400 integer (299400 binary)
Coefficient statistics:
  Matrix range     [1e+00, 2e+01]
  Objective range  [1e+00, 1e+00]
  Bounds range     [1e+00, 1e+00]
  RHS range        [1e+00, 2e+02]
Found heuristic solution: objective 148287.00000
Found heuristic solution: objective 149497.00000
Found heuristic solution: objective 149563.00000
Presolve removed 78940 rows and 157885 columns
Presolve time: 0.15s
Presolved: 4012 rows, 141515 columns, 91919 nonzeros
Variable types: 0 continuous, 141515 integer (141510 binary)
Found heuristic solution: objective 149691.00000

Explored 0 nodes (0 simplex iterations) in 0.32 seconds (0.24 work units)
Thread count was 8 (of 8 available processors)

Solution count 4: 149691 149563 149497 148287 

Optimal solution found (tolerance 1.00e-04)
Best objective 1.496910000000e+05, best bound 1.497000000000e+05, gap 0.0060%

User-callback calls 121, time in user-callback 0.00 sec

Gurobi 9.5.1 (linux64) logging started Fri Mar 18 13:08:37 2022

Set parameter LogFile to value "../results/logs/log_2022_03_18_12_09.csv_21_250.log"
Set parameter LazyConstraints to value 1
Gurobi Optimizer version 9.5.1 build v9.5.1rc2 (linux64)
Thread count: 8 physical cores, 8 logical processors, using up to 8 threads
Optimize a model with 82952 rows, 299400 columns and 404381 nonzeros
Model fingerprint: 0x989225fe
Variable types: 0 continuous, 299400 integer (299400 binary)
Coefficient statistics:
  Matrix range     [1e+00, 2e+01]
  Objective range  [1e+00, 1e+00]
  Bounds range     [1e+00, 1e+00]
  RHS range        [1e+00, 2e+02]
Found heuristic solution: objective 148287.00000
Found heuristic solution: objective 149497.00000
Found heuristic solution: objective 149563.00000
Presolve removed 78940 rows and 157885 columns
Presolve time: 0.15s
Presolved: 4012 rows, 141515 columns, 91919 nonzeros
Variable types: 0 continuous, 141515 integer (141510 binary)
Found heuristic solution: objective 149691.00000

Explored 0 nodes (0 simplex iterations) in 0.32 seconds (0.24 work units)
Thread count was 8 (of 8 available processors)

Solution count 4: 149691 149563 149497 148287 

Optimal solution found (tolerance 1.00e-04)
Best objective 1.496910000000e+05, best bound 1.497000000000e+05, gap 0.0060%

User-callback calls 121, time in user-callback 0.00 sec

Gurobi 9.5.1 (linux64) logging started Fri Mar 18 13:18:57 2022

Set parameter LogFile to value "../results/logs/log_2022_03_18_12_09.csv_21_250.log"
Set parameter LazyConstraints to value 1
Gurobi Optimizer version 9.5.1 build v9.5.1rc2 (linux64)
Thread count: 8 physical cores, 8 logical processors, using up to 8 threads
Optimize a model with 82952 rows, 299400 columns and 404381 nonzeros
Model fingerprint: 0x5a8ddca8
Variable types: 149700 continuous, 149700 integer (149700 binary)
Coefficient statistics:
  Matrix range     [1e+00, 2e+01]
  Objective range  [1e+00, 1e+00]
  Bounds range     [1e+00, 1e+00]
  RHS range        [1e+00, 2e+02]
Found heuristic solution: objective 148287.00000
Found heuristic solution: objective 149700.00000

Explored 0 nodes (0 simplex iterations) in 0.06 seconds (0.03 work units)
Thread count was 1 (of 8 available processors)

Solution count 2: 149700 148287 

Optimal solution found (tolerance 1.00e-04)
Best objective 1.497000000000e+05, best bound 1.497000000000e+05, gap 0.0000%

User-callback calls 23, time in user-callback 0.00 sec

Gurobi 9.5.1 (linux64) logging started Fri Mar 18 13:24:18 2022

Set parameter LogFile to value "../results/logs/log_2022_03_18_12_09.csv_21_250.log"
Set parameter LazyConstraints to value 1
Gurobi Optimizer version 9.5.1 build v9.5.1rc2 (linux64)
Thread count: 8 physical cores, 8 logical processors, using up to 8 threads
Optimize a model with 168590 rows, 299400 columns and 661295 nonzeros
Model fingerprint: 0x81d5bae9
Variable types: 0 continuous, 299400 integer (299400 binary)
Coefficient statistics:
  Matrix range     [1e+00, 2e+01]
  Objective range  [1e+00, 1e+00]
  Bounds range     [1e+00, 1e+00]
  RHS range        [1e+00, 2e+02]
Found heuristic solution: objective 148287.00000
Found heuristic solution: objective 149497.00000
Found heuristic solution: objective 149563.00000
Presolve removed 163147 rows and 157885 columns
Presolve time: 0.24s
Presolved: 5443 rows, 141515 columns, 96209 nonzeros
Extracted 1654 lazy constraints
Variable types: 0 continuous, 141515 integer (141510 binary)
Found heuristic solution: objective 149693.00000

Explored 0 nodes (0 simplex iterations) in 0.44 seconds (0.33 work units)
Thread count was 8 (of 8 available processors)

Solution count 4: 149693 149563 149497 148287 

Optimal solution found (tolerance 1.00e-04)
Best objective 1.496930000000e+05, best bound 1.497000000000e+05, gap 0.0047%

User-callback calls 167, time in user-callback 0.00 sec

Gurobi 9.5.1 (linux64) logging started Fri Mar 18 13:30:48 2022

Set parameter LogFile to value "../results/logs/log_2022_03_18_12_09.csv_21_250.log"
Set parameter LazyConstraints to value 1
Gurobi Optimizer version 9.5.1 build v9.5.1rc2 (linux64)
Thread count: 8 physical cores, 8 logical processors, using up to 8 threads
Optimize a model with 82952 rows, 299400 columns and 404381 nonzeros
Model fingerprint: 0x61425a80
Variable types: 0 continuous, 299400 integer (299400 binary)
Coefficient statistics:
  Matrix range     [1e+00, 2e+01]
  Objective range  [1e+00, 1e+00]
  Bounds range     [1e+00, 1e+00]
  RHS range        [1e+00, 2e+02]
Found heuristic solution: objective 148287.00000
Found heuristic solution: objective 149497.00000
Found heuristic solution: objective 149563.00000
Presolve removed 78940 rows and 161182 columns
Presolve time: 0.15s
Presolved: 4012 rows, 138218 columns, 88622 nonzeros
Variable types: 0 continuous, 138218 integer (138213 binary)
Found heuristic solution: objective 149691.00000

Explored 0 nodes (0 simplex iterations) in 0.31 seconds (0.23 work units)
Thread count was 8 (of 8 available processors)

Solution count 4: 149691 149563 149497 148287 

Optimal solution found (tolerance 1.00e-04)
Best objective 1.496910000000e+05, best bound 1.497000000000e+05, gap 0.0060%

User-callback calls 121, time in user-callback 0.00 sec

Gurobi 9.5.1 (linux64) logging started Fri Mar 18 13:36:13 2022

Set parameter LogFile to value "../results/logs/log_2022_03_18_12_09.csv_21_250.log"
Set parameter LazyConstraints to value 1
Gurobi Optimizer version 9.5.1 build v9.5.1rc2 (linux64)
Thread count: 8 physical cores, 8 logical processors, using up to 8 threads
Optimize a model with 82952 rows, 299400 columns and 404381 nonzeros
Model fingerprint: 0x989225fe
Variable types: 0 continuous, 299400 integer (299400 binary)
Coefficient statistics:
  Matrix range     [1e+00, 2e+01]
  Objective range  [1e+00, 1e+00]
  Bounds range     [1e+00, 1e+00]
  RHS range        [1e+00, 2e+02]
Found heuristic solution: objective 148287.00000
Found heuristic solution: objective 149497.00000
Found heuristic solution: objective 149563.00000
Presolve removed 78940 rows and 157885 columns
Presolve time: 0.15s
Presolved: 4012 rows, 141515 columns, 91919 nonzeros
Variable types: 0 continuous, 141515 integer (141510 binary)
Found heuristic solution: objective 149691.00000

Explored 0 nodes (0 simplex iterations) in 0.32 seconds (0.24 work units)
Thread count was 8 (of 8 available processors)

Solution count 4: 149691 149563 149497 148287 

Optimal solution found (tolerance 1.00e-04)
Best objective 1.496910000000e+05, best bound 1.497000000000e+05, gap 0.0060%

User-callback calls 121, time in user-callback 0.00 sec

Gurobi 9.5.1 (linux64) logging started Fri Mar 18 13:47:57 2022

Set parameter LogFile to value "../results/logs/log_2022_03_18_12_09.csv_21_250.log"
Set parameter LazyConstraints to value 1
Gurobi Optimizer version 9.5.1 build v9.5.1rc2 (linux64)
Thread count: 8 physical cores, 8 logical processors, using up to 8 threads
Optimize a model with 168590 rows, 299400 columns and 661295 nonzeros
Model fingerprint: 0x3426438e
Variable types: 149700 continuous, 149700 integer (149700 binary)
Coefficient statistics:
  Matrix range     [1e+00, 2e+01]
  Objective range  [1e+00, 1e+00]
  Bounds range     [1e+00, 1e+00]
  RHS range        [1e+00, 2e+02]
Found heuristic solution: objective 148287.00000
Found heuristic solution: objective 149700.00000

Explored 0 nodes (0 simplex iterations) in 0.07 seconds (0.04 work units)
Thread count was 1 (of 8 available processors)

Solution count 2: 149700 148287 

Optimal solution found (tolerance 1.00e-04)
Best objective 1.497000000000e+05, best bound 1.497000000000e+05, gap 0.0000%

User-callback calls 23, time in user-callback 0.00 sec
